g3 0 1 0	# problem ex5_4_4
 27 19 1 0 19	# vars, constraints, objectives, ranges, eqns
 6 1	# nonlinear constraints, objectives
 0 0	# network constraints: nonlinear, linear
 15 21 0	# nonlinear vars in constraints, objectives, both
 0 0 0 1	# linear network variables; functions; arith, flags
 0 0 0 0 0	# discrete variables: binary, integer, nonlinear (b,c,o)
 69 6	# nonzeros in Jacobian, gradients
 0 0	# max name lengths: constraints, variables
 0 0 0 0 0	# common exprs: b,c,o,c1,o1
b
0 0 45
0 0 45
0 0 45
0 0 45
0 0 45
0 0 45
0 0 45
0 0 45
0 0 45
0 100 200
0 100 200
0 100 200
0 100 200
0 100 200
0 100 200
0 10 110
0 10 110
0 10 110
0 10 110
0 10 110
0 10 110
0 0 45
0 0 45
0 0 45
0 0 45
0 0 45
0 0 45
x12
9 100
10 100
11 100
12 100
13 100
14 100
15 10
16 10
17 10
18 10
19 10
20 10
r
4 0
4 0
4 0
4 2000
4 1000
4 1500
4 45
4 0
4 0
4 0
4 0
4 0
4 0
4 210
4 130
4 210
4 160
4 210
4 180
C0
o54
3
o2
v12
v4
o2
v14
v8
o16
o2
v9
v0
C1
o54
3
o2
v10
v1
o2
v14
v7
o16
o2
v11
v3
C2
o54
3
o2
v10
v2
o2
v12
v5
o16
o2
v13
v6
C3
o1
o2
v0
v10
o2
v0
v9
C4
o1
o2
v3
v12
o2
v3
v11
C5
o1
o2
v6
v14
o2
v6
v13
C6
n0
C7
n0
C8
n0
C9
n0
C10
n0
C11
n0
C12
n0
C13
n0
C14
n0
C15
n0
C16
n0
C17
n0
C18
n0
O0 0
o54
3
o2
n1300
o5
o3
n2000
o54
3
o2
o2
n0.333333333333333
v15
v16
o2
n0.166666666666667
v15
o2
n0.166666666666667
v16
n0.6
o2
n1300
o5
o3
n1000
o54
3
o2
o2
n0.666666666666667
v17
v18
o2
n0.166666666666667
v17
o2
n0.166666666666667
v18
n0.6
o2
n1300
o5
o3
n1500
o54
3
o2
o2
n0.666666666666667
v19
v20
o2
n0.166666666666667
v19
o2
n0.166666666666667
v20
n0.6
k26
4
7
10
14
17
20
24
27
30
33
37
40
44
47
51
52
53
54
55
56
57
60
61
64
65
68
J0 7
0 0
4 0
8 0
9 0
12 0
14 0
21 100
J1 7
1 0
3 0
7 0
10 0
11 0
14 0
23 100
J2 7
2 0
5 0
6 0
10 0
12 0
13 0
25 100
J3 3
0 0
9 0
10 0
J4 3
3 0
11 0
12 0
J5 3
6 0
13 0
14 0
J6 3
21 1
23 1
25 1
J7 4
0 -1
4 1
8 1
21 1
J8 4
1 1
3 -1
7 1
23 1
J9 4
2 1
5 1
6 -1
25 1
J10 4
0 -1
1 1
2 1
22 1
J11 4
3 -1
4 1
5 1
24 1
J12 4
6 -1
7 1
8 1
26 1
J13 2
10 1
15 1
J14 2
9 1
16 1
J15 2
12 1
17 1
J16 2
11 1
18 1
J17 2
14 1
19 1
J18 2
13 1
20 1
G0 6
15 0
16 0
17 0
18 0
19 0
20 0
